NAME : tsp35_18.198.tour
COMMENT : Length = 198
COMMENT : Found by LKH [Keld Helsgaun]
TYPE : TOUR
DIMENSION : 35
TOUR_SECTION
1
2
33
30
27
24
8
35
14
16
23
28
13
34
12
18
11
21
25
9
32
3
29
22
15
5
19
6
20
17
4
26
31
10
7
-1
EOF
